letting n_nurses=25
letting n_days=7
letting n_shift_types=4
letting max_covers=13
letting t_covers=61
letting covers=[8,2,0,0,9,2,0,0,0,10,2,0,0,10,2,0,2,0,13,0,1,0,0,0,0,0,0,0]
letting prefes=[3,1,1,3,1,1,1,1,1,1,1,1,1,1,1,1,3,1,1,3,1,1,1,1,1,1,1,1,3,3,3,3,3,4,3,3,3,1,1,1,3,1,1,1,3,3,3,3,3,1,1,1,3,1,1,1,3,1,1,1,1,1,1,1,1,1,1,1,1,1,1,1,3,1,1,1,1,1,1,1,1,1,1,1,1,3,3,3,1,4,1,1,3,1,1,1,3,1,1,1,1,3,3,3,3,1,1,1,3,1,1,1,3,1,1,3,1,4,1,1,3,4,4,4,3,4,4,4,3,1,1,3,3,4,4,4,3,4,4,4,3,1,1,3,1,4,1,1,3,1,1,1,3,1,1,1,3,1,1,3,3,1,1,1,3,1,1,1,1,3,3,3,1,4,1,1,3,4,4,4,3,4,4,4,1,3,3,3,3,4,4,4,3,4,4,4,3,1,1,3,1,4,1,1,3,1,1,1,3,1,1,1,3,1,1,3,3,1,1,1,3,1,1,1,1,1,1,1,1,1,1,1,3,1,1,1,3,1,1,1,1,1,1,1,3,1,1,1,3,1,1,1,3,3,3,3,1,1,1,1,1,1,1,1,1,1,1,1,3,3,3,3,1,1,1,1,1,1,1,1,3,1,1,1,3,4,3,3,3,1,1,1,3,1,1,1,3,1,1,1,3,1,1,1,3,1,1,1,3,1,1,3,1,4,1,1,3,4,4,4,3,4,4,4,3,1,1,3,3,4,4,4,3,4,4,4,3,1,1,3,1,4,1,1,3,4,4,4,3,4,4,4,3,1,1,3,3,4,4,4,3,4,4,4,3,1,1,3,3,4,3,3,3,1,1,1,3,1,1,1,3,1,1,3,3,1,1,1,3,1,1,1,3,1,1,3,1,4,1,1,3,1,1,1,3,1,1,1,3,1,1,3,3,1,1,1,3,1,1,1,1,1,1,1,1,4,1,1,3,1,1,1,3,1,1,1,1,1,1,1,3,1,1,1,3,1,1,1,3,1,1,3,1,4,1,1,3,1,1,1,3,1,1,1,3,1,1,3,3,1,1,1,3,1,1,1,3,1,1,3,1,4,1,1,1,1,1,1,1,1,1,1,3,1,1,3,1,1,1,1,1,1,1,1,3,1,1,3,3,4,3,3,1,1,1,1,1,1,1,1,3,1,1,3,1,1,1,1,1,1,1,1,3,1,1,3,1,1,1,1,3,4,4,4,3,4,4,4,3,1,1,3,3,4,4,4,3,4,4,4,3,1,1,3,1,4,1,1,3,1,1,1,3,1,1,1,3,1,1,3,3,1,1,1,3,1,1,1,3,3,3,3,3,4,3,3,3,1,1,1,3,1,1,1,3,3,3,3,3,1,1,1,3,1,1,1,3,1,1,3,1,4,1,1,3,1,1,1,3,1,1,1,3,1,1,3,3,1,1,1,3,1,1,1,1,1,1,1,1,4,1,1,3,1,1,1,3,1,1,1,1,1,1,1,3,1,1,1,3,1,1,1,3,1,1,3,1,4,1,1,3,1,1,1,3,1,1,1,3,1,1,3,3,1,1,1,3,1,1,1]
letting ub =  242
